SystemName          sic
SystemLabel         sic
NumberOfAtoms       290
NumberOfSpecies     5
LatticeConstant     5.4014 Ang

#PAO.EnergyShift   0.50 eV
MD.UseSaveXV .true.

MaxSCFIterations     200
DM.MixingWeight      0.3
DM.NumberPulay       4
#DM.EnergyTolerance   1.d-5 eV
DM.Tolerance         1.d-4

MeshCutoff         200. Ry

XC.functional        LDA
XC.authors           CA
SolutionMethod       diagon
ElectronicTemperature 300. K

#MD.TypeOfRun           Verlet
#MD.Quench              .false.
#MD.InitialTimeStep     1
#MD.FinalTimeStep       2000
#MD.InitialTemperature  0.0 K
#MD.LengthTimeStep      2.0 fs

#MD.TypeofRun        CG
#MD.NumCGsteps       1000
#MD.MaxForceTol      0.003 eV/Ang

MD.TypeOfRun           Verlet
#MD.Quench              .false.
MD.InitialTimeStep    5107
MD.FinalTimeStep      10000
MD.LengthTimeStep     1.0 fs

WriteMDHistory .true.


#MD.TypeofRun     FC
#MD.FCDispl        0.04 Bohr
#MD.FCfirst       1
#MD.FClast        290



# WriteMullikenPop 2
# SpinPolarized .true.


%block ChemicalSpeciesLabel
 1  14  Si
 2  14  Si2
 3  1   H
 4  6  C
 5  6  C2
%endblock ChemicalSpeciesLabel

%block AtomicMass
1  28.00
2  28.00
3  1.00
4  12.00
5  12.00
%endblock AtomicMass


%block PAO.BasisSizes
C      DZ
%endblock PAO.BasisSizes

PAO.BasisType    split
%block PAO.Basis                                   # Define Basis set
Si     3
 n=3    0    2  S 0.3520364
   5.3682500   0.0
   1.000   1.000
 n=3    1    2  S 0.4082817
   6.7573528   0.0
   1.000   1.000
 n=3    2       1
   3.8685240
   1.000
Si2     3
 n=3    0    2  S 0.3301624
   6.2732059   0.0
   1.000   1.000
 n=3    1    2  S 0.2921446
   7.4614591   0.0
   1.000   1.000
 n=3    2       1
   4.0655337
   1.000
H     1
 n=1   0    2  S 0.4762500
   5.5000000  0.0
   1.000   1.000
C2           2   0.500
 n=2   0   2   S 0.2101312
   5.1735967      0.0
   1.000      1.000
 n=2   1   2 P   1  S 0.1742491
   5.6893765      0.0
   1.000      1.000
%endblock PAO.Basis


%block LatticeVectors
14.0 0.0 0.0
0.0 4.0 0.0
0.0 0.0 4.0
%endblock LatticeVectors

#%block kgrid_Monkhorst_Pack
# 2  0  0   0
# 0  2  0   0
# 0  0  2   0
#%endblock kgrid_Monkhorst_Pack

AtomicCoordinatesFormat  Ang
%block AtomicCoordinatesAndAtomicSpecies
    2.00912713    6.14207883    0.13893209   3  H          1
    2.00770598    7.91272181    1.86928797   3  H          2
    1.99115377    0.23450449    6.22585817   3  H          3
    2.00443786    2.01257000    7.94770921   3  H          4
    0.13217025    6.42369450    4.59420500   3  H          5
    0.12123187    4.70757902    6.35690353   3  H          6
    0.11215600    1.74591174    3.44766492   3  H          7
    0.13335259    3.47723351    1.69942023   3  H          8
    1.61691633    0.40905222    0.43301023   3  H          9
    2.44078478    1.32882850    1.33450210   2  Si2       10
    2.85180597    6.82152879    1.21535839   2  Si2       11
    1.02453231    2.66262526    2.63503318   2  Si2       12
    2.22818121    4.07422283    4.03652279   1  Si        13
    2.84183895    1.32473107    6.87234923   2  Si2       14
    1.02889321    5.50477934    5.42181720   2  Si2       15
    2.44640120    6.83537302    6.72459446   2  Si2       16
    1.62572399    7.75989958    7.62403853   3  H         17
    4.30255258    2.24985372    0.30638881   2  Si2       18
    5.22231701    4.05499005    1.50221761   1  Si        19
    4.89038625    7.60749881    0.41209254   2  Si2       20
    4.95994835    8.66980408   -0.67964910   3  H         21
    4.28466898    0.31271705    2.30187434   2  Si2       22
    5.20617947    1.52980788    4.09561647   1  Si        23
    3.71328021    5.31043418    2.76405320   1  Si        24
    5.21946602    6.60704449    3.98651768   1  Si        25
    3.70182395    2.83047808    5.31547358   1  Si        26
    5.21347469    4.08340867    6.57665310   1  Si        27
    4.30324455    7.84255822    5.76852575   2  Si2       28
    4.88018219    0.53551842    7.67372269   2  Si2       29
    4.94691647   -0.52427867    8.76809676   3  H         30
    4.29558172    5.89775186    7.76176513   2  Si2       31
    5.78333942    0.46279217    0.52278315   2  Si2       32
    5.74468876   -0.62897941   -0.54148191   3  H         33
    7.78282514    1.33331314    1.38682304   1  Si        34
    6.31803348    5.79092396    0.32931954   2  Si2       35
    8.20829438    6.71103516    1.32829500   1  Si        36
    6.64540842    2.78329360    2.79866612   1  Si        37
    8.00160581    4.06112895    4.04102023   1  Si        38
    6.31948722    7.73682233    2.22473130   2  Si2       39
    6.30289968    0.39399315    5.85558628   2  Si2       40
    8.19704916    1.41346342    6.75312614   1  Si        41
    6.64863314    5.34273243    5.28310601   1  Si        42
    7.78707890    6.78555105    6.70068391   1  Si        43
    6.30832729    2.34349048    7.73464313   1  Si        44
    5.79101642    7.66936722    7.55200464   1  Si        45
    5.75824941    8.75822242    8.61286074   3  H         46
    9.67212987    2.20332783    0.33200880   2  Si2       47
   10.71570405    4.01811104    1.43338920   1  Si        48
   10.19696504    7.59154338    0.42658342   2  Si2       49
   10.19976319    8.65650262   -0.66562173   3  H         50
    9.67033246    0.29652326    2.28170838   2  Si2       51
   10.70814669    1.44706917    4.06948872   1  Si        52
    9.34247866    5.31174344    2.75673855   1  Si        53
   10.71551470    6.66584044    4.01745796   1  Si        54
    9.33818845    2.80746965    5.32774270   1  Si        55
   10.71649743    4.09663683    6.64899661   1  Si        56
    9.67795783    7.81591819    5.80598832   2  Si2       57
   10.18457131    0.52969079    7.66072926   2  Si2       58
   10.18282673   -0.53459788    8.75349984   3  H         59
    9.67523054    5.90985622    7.75604936   2  Si2       60
   11.17336319    0.42900926    0.50484809   2  Si2       61
   11.14277510   -0.66155172   -0.56129193   3  H         62
   13.20330022    1.29409063    1.35086827   1  Si        63
   11.71366701    5.82898361    0.27856201   2  Si2       64
   13.60278098    6.73767435    1.29652522   1  Si        65
   12.10225174    2.74625189    2.76820146   1  Si        66
   13.41031454    4.05169335    4.04290313   1  Si        67
   11.71649031    7.78214637    2.18468341   2  Si2       68
   11.70591538    0.33166446    5.90506917   2  Si2       69
   13.59781811    1.36890028    6.78908915   1  Si        70
   12.10905317    5.36407127    5.31732556   1  Si        71
   13.21140974    6.81413960    6.73585241   1  Si        72
   11.71106442    2.28496269    7.80591091   2  Si2       73
   11.18133162    7.68048410    7.58181688   2  Si2       74
   11.15334252    8.77234473    8.64669965   3  H         75
   15.10126724    2.18189417    0.32777278   2  Si2       76
   16.11755096    4.01291299    1.43834677   1  Si        77
   15.61304940    7.59482356    0.41861698   2  Si2       78
   15.63851575    8.66014205   -0.67294774   3  H         79
   15.09526976    0.28680267    2.27091833   2  Si2       80
   16.11260533    1.44573942    4.07167297   1  Si        81
   14.72641230    5.31961546    2.74047625   1  Si        82
   16.11639727    6.65287686    4.01432500   1  Si        83
   14.72545371    2.78336223    5.34471569   1  Si        84
   16.11396037    4.08944041    6.64804354   1  Si        85
   15.10705159    7.81398834    5.81674685   2  Si2       86
   15.60591487    0.51010666    7.67195666   2  Si2       87
   15.62960285   -0.55417238    8.76475700   3  H         88
   15.10388410    5.91950652    7.76357772   2  Si2       89
   16.60491781    0.41049513    0.50069982   2  Si2       90
   16.58043934   -0.68162995   -0.56416499   3  H         91
   18.62189100    1.28369553    1.35376749   1  Si        92
   17.11697942    5.82023467    0.27751090   2  Si2       93
   19.00268603    6.72881394    1.29855516   1  Si        94
   17.51641670    2.74270276    2.77061932   1  Si        95
   18.84175834    4.04547977    4.03791195   1  Si        96
   17.11946565    7.77419402    2.18669485   2  Si2       97
   17.11431409    0.33091570    5.90567303   2  Si2       98
   18.99880778    1.37435787    6.79400126   1  Si        99
   17.51711316    5.34686681    5.30851310   1  Si       100
   18.62340037    6.80221994    6.72741315   1  Si       101
   17.11084515    2.28396029    7.81056173   2  Si2      102
   16.61562596    7.68348066    7.58639866   2  Si2      103
   16.59838454    8.77632815    8.65067236   3  H        104
   20.51272690    2.16931494    0.31732764   2  Si2      105
   21.53295210    4.01241007    1.40950015   1  Si       106
   20.97177562    7.62093284    0.38701635   2  Si2      107
   20.95709066    8.68459827   -0.70725286   3  H        108
   20.51799333    0.28141098    2.26294156   2  Si2      109
   21.53444993    1.41089894    4.08797274   1  Si       110
   20.15809237    5.32217684    2.73483517   1  Si       111
   21.53119791    6.68493266    4.00640768   1  Si       112
   20.15336838    2.77438491    5.35049258   1  Si       113
   21.52856757    4.08155164    6.67595361   1  Si       114
   20.51469708    7.81944371    5.82703941   2  Si2      115
   20.96778218    0.48400019    7.70910084   2  Si2      116
   20.95149980   -0.57788524    8.80511233   3  H        117
   20.50737053    5.92010270    7.77411602   2  Si2      118
   22.01851773    0.39551472    0.48371356   2  Si2      119
   21.97221918   -0.69803072   -0.57926217   3  H        120
   24.05778859    1.24742365    1.31523233   1  Si       121
   22.49940773    5.86961310    0.26510665   2  Si2      122
   24.40589027    6.82530772    1.20248640   1  Si       123
   22.90944397    2.70338884    2.73921556   1  Si       124
   24.14565695    4.04557453    4.04618604   1  Si       125
   22.50191288    7.79508074    2.13409464   2  Si2      126
   22.49982697    0.30271664    5.96471339   2  Si2      127
   24.40644223    1.27097574    6.89315245   1  Si       128
   22.90649760    5.38806484    5.34866330   1  Si       129
   24.05162717    6.84004453    6.77688530   1  Si       130
   22.49928222    2.23281533    7.82744146   2  Si2      131
   22.01330305    7.69297118    7.60971025   2  Si2      132
   21.96749326    8.78590140    8.67352207   3  H        133
   25.94209791    2.12673764    0.24458918   2  Si2      134
   26.69805919    4.05944787    1.37781763   1  Si       135
   26.61106519    7.53336056    0.47565636   2  Si2      136
   26.74196056    8.59357551   -0.61223293   3  H        137
   25.95067504    0.19637884    2.20084677   2  Si2      138
   26.70144575    1.36485664    4.11453678   1  Si       139
   25.34522831    5.37773987    2.69196186   1  Si       140
   26.69635971    6.72667197    3.97609212   1  Si       141
   25.34672077    2.71058972    5.39714528   1  Si       142
   26.69818664    4.02813623    6.71133152   1  Si       143
   25.94340922    7.89145554    5.89282688   2  Si2      144
   26.61439197    0.56129981    7.61669883   2  Si2      145
   26.74439988   -0.49910120    8.70458104   3  H        146
   25.93566315    5.95733444    7.84531329   2  Si2      147
   27.64438911    0.53328299    0.59289857   2  Si2      148
   27.71565490   -0.55643272   -0.47822961   3  H        149
   29.42812618    1.71552557    1.75371444   1  Si       150
   28.05543366    5.69366825    0.38076912   2  Si2      151
   29.80646297    6.21822699    1.83579394   1  Si       152
   27.87305614    2.84142108    2.87239866   1  Si       153
   29.28119885    4.04802738    4.04678717   1  Si       154
   28.05085273    7.68192613    2.31423554   2  Si2      155
   28.05552603    0.41189197    5.77865515   2  Si2      156
   29.80877355    1.87935860    6.25858625   1  Si       157
   27.86854929    5.25091900    5.21822686   1  Si       158
   29.41765150    6.38030408    6.34040800   1  Si       159
   28.05828071    2.40067387    7.71301399   2  Si2      160
   27.63445911    7.55669403    7.50271759   2  Si2      161
   27.70456850    8.64531434    8.57506904   3  H        162
   30.99278489    2.75309315    1.61548111   5  C2       163
   31.53067869    4.06823432    2.30704327   4  C        164
   31.61184931    6.58696004    1.47010227   5  C2       165
   32.02465459    7.31012974    0.73710786   3  H        166
   30.99470100    1.59652436    2.79000060   5  C2       167
   31.53131368    2.30956364    4.09423066   4  C        168
   30.50943887    4.97364256    3.10754478   4  C        169
   31.52585477    5.79310102    4.00426387   4  C        170
   30.51057324    3.12603727    4.98812999   4  C        171
   31.52728918    4.03476245    5.79125774   4  C        172
   30.98481638    6.50458072    5.30722739   5  C2       173
   31.61425583    1.51573884    6.62820514   5  C2       174
   32.02756056    0.79405088    7.36237173   3  H        175
   30.98419416    5.34770978    6.48192489   5  C2       176
   32.05788133    1.65966829    1.69343678   5  C2       177
   32.16226383    0.87360178    0.91970177   3  H        178
   33.25084001    2.31303591    2.33446724   4  C        179
   32.32645104    5.26114173    1.67670953   5  C2       180
   33.60039410    5.78547385    2.29670536   4  C        181
   32.47835643    3.23878308    3.24878709   4  C        182
   33.39104030    4.05444343    4.05143538   4  C        183
   32.32102671    6.40683123    2.80346220   5  C2       184
   32.32624772    1.69850154    5.29685374   5  C2       185
   33.60229126    2.32450676    5.80720213   4  C        186
   32.47458530    4.86725266    4.85203100   4  C        187
   33.24203778    5.79599216    5.76805552   4  C        188
   32.32490607    2.84414392    6.42347232   5  C2       189
   32.04546909    6.44492951    6.40627446   5  C2       190
   32.14507652    7.23133851    7.18030446   3  H        191
   34.52645485    2.86523586    1.72060923   5  C2       192
   35.27766046    4.04979214    2.35402164   4  C        193
   34.79939109    6.42774891    1.65148928   5  C2       194
   34.73760184    7.20582425    0.86363555   3  H        195
   34.52837726    1.70887338    2.89095151   5  C2       196
   35.27851212    2.35777353    4.06670608   4  C        197
   34.31537202    4.85921627    3.23969613   4  C        198
   35.27300806    5.75802497    4.04097047   4  C        199
   34.31616069    3.25330698    4.86584343   4  C        200
   35.27416411    4.06646890    5.75344696   4  C        201
   34.51871985    6.40459589    5.21508932   5  C2       202
   34.80230927    1.68687431    6.45531246   5  C2       203
   34.74179540    0.90891013    7.24336279   3  H        204
   34.51802844    5.24817288    6.38543260   5  C2       205
   35.41122505    1.64727232    1.67199189   5  C2       206
   35.31796031    0.86039579    0.89471645   3  H        207
   36.79235391    2.11061996    2.12682118   4  C        208
   35.84130372    5.32421296    1.62961669   5  C2       209
   37.10436973    6.10686780    1.98921926   4  C        210
   36.30088088    3.19289548    3.19823087   4  C        211
   37.21816446    4.06128668    4.05560924   4  C        212
   35.83611726    6.46872223    2.75968962   5  C2       213
   35.84179139    1.64949052    5.34945020   5  C2       214
   37.10676840    2.01732207    6.12308658   4  C        215
   36.29667636    4.92662442    4.91136945   4  C        216
   36.78297069    6.01058940    5.98358874   4  C        217
   35.83992243    2.79437099    6.47925954   5  C2       218
   35.39905313    6.46894889    6.43597419   5  C2       219
   35.30113835    7.25561187    7.21293700   3  H        220
   38.03613887    2.49413229    0.66728143   2  Si2      221
   39.56359571    4.02802715    1.46823306   1  Si       222
   38.32402173    7.17049665    0.91981575   2  Si2      223
   37.73703427    8.16283493   -0.08115802   3  H        224
   38.04395785    0.66353714    2.51898516   2  Si2      225
   39.56950701    1.47463643    4.04602002   1  Si       226
   38.31015929    5.11553998    2.99787761   1  Si       227
   39.56387894    6.65491193    4.07209109   1  Si       228
   38.31159776    3.01210840    5.11619293   1  Si       229
   39.56403696    4.10093037    6.64563291   1  Si       230
   38.02847030    7.46547005    5.59173042   2  Si2      231
   38.32663389    0.95814473    7.19609419   2  Si2      232
   37.74032756   -0.03435707    8.19716656   3  H        233
   38.03009253    5.63024573    7.44044466   2  Si2      234
   39.41959451    0.60811480    0.62794444   2  Si2      235
   39.22013437   -0.46823633   -0.43324065   3  H        236
   41.75322317    1.22418511    1.23675689   1  Si       237
   40.17902152    5.88479652    0.21623838   2  Si2      238
   42.06130949    6.78084276    1.32031387   1  Si       239
   40.93639790    2.72041283    2.72275489   1  Si       240
   42.11154828    4.06845360    4.05917148   1  Si       241
   40.17675451    7.89068212    2.20345003   2  Si2      242
   40.17969318    0.23771124    5.91415382   2  Si2      243
   42.06023549    1.35347619    6.79712538   1  Si       244
   40.93688392    5.41591912    5.39653286   1  Si       245
   41.74336811    6.91831824    6.88333768   1  Si       246
   40.17795165    2.24731329    7.90362079   2  Si2      247
   39.40271647    7.52476135    7.48452497   2  Si2      248
   39.19794026    8.59628455    8.54942209   3  H        249
   43.67412570    2.20497490    0.33607353   2  Si2      250
   44.70849076    4.03332056    1.46684888   1  Si       251
   44.08734989    7.63127504    0.46751934   2  Si2      252
   44.14088265    8.70514607   -0.61515223   3  H        253
   43.67496389    0.33132482    2.22175267   2  Si2      254
   44.70732549    1.47815365    4.04296370   1  Si       255
   43.31899691    5.38175449    2.73424480   1  Si       256
   44.70268239    6.66432917    4.07563916   1  Si       257
   43.31836222    2.75505096    5.38521473   1  Si       258
   44.70609512    4.10678612    6.65355145   1  Si       259
   43.66546422    7.80824973    5.89364919   2  Si2      260
   44.08851984    0.50650577    7.65130247   2  Si2      261
   44.14648367   -0.56874620    8.73241592   3  H        262
   43.66937338    5.93894414    7.77772799   2  Si2      263
   45.16014557    0.43988034    0.45312283   2  Si2      264
   45.15743987   -0.64346800   -0.62132862   3  H        265
   47.13842892    1.29994494    1.31294241   2  Si2      266
   45.60511580    5.85985850    0.27347110   2  Si2      267
   47.44971824    6.80515440    1.30013451   1  Si       268
   46.18403396    2.80814516    2.80773069   1  Si       269
   47.65470998    4.07556636    4.06037144   1  Si       270
   45.60338957    7.83865244    2.23733021   2  Si2      271
   45.60692454    0.30729952    5.88303668   2  Si2      272
   47.45810960    1.33911791    6.81943345   2  Si2      273
   46.17899057    5.33630532    5.31383910   1  Si       274
   47.13284836    6.85002328    6.80481109   2  Si2      275
   45.60479604    2.27817833    7.84562125   2  Si2      276
   45.15233065    7.70842727    7.65951780   2  Si2      277
   45.14638173    8.79218750    8.73366990   3  H        278
   48.84583995    5.48416690    2.63616900   2  Si2      279
   48.85021324    2.67314114    5.48534115   2  Si2      280
   48.31022321    0.44368566    7.71981537   3  H        281
   48.29525070    7.69998043    0.39987583   3  H        282
   49.75032700    6.41374256    3.44404446   3  H        283
   49.74561574    3.49658071    6.41010408   3  H        284
   47.99481045    6.16126915    7.86025780   3  H        285
   47.98601009    7.89912110    6.09548500   3  H        286
   49.75234265    4.66647764    1.71725404   3  H        287
   47.99958045    1.99426532    0.26037664   3  H        288
   47.99348961    0.24869086    2.01677979   3  H        289
   49.76451770    1.75033375    4.68093989   3  H        290
%endblock AtomicCoordinatesAndAtomicSpecies
